GeneratedTests/Random_12/Random_12_9.tsp
NAME: Random_12_9
TYPE: TSP
DIMENSION: 12
EDGE_WEIGHT_TYPE: EUC_2D
NODE_COORD_SECTION
1 26.576979 12.635846
2 1.1469126 11.372302
3 11.187258 0.5499108
4 35.950382 21.45607
5 33.05873 20.413536
6 23.080101 17.907732
7 28.263367 23.973747
8 34.82595 14.367274
9 11.997055 33.33797
10 9.181551 16.621197
11 35.40104 17.86847
12 22.684925 31.810823
EOF
