GeneratedTests/Random_12/Random_12_9.txt
NAME: Random_12_9
TYPE: TSP
DIMENSION: 12
EDGE_WEIGHT_TYPE: EUC_2D
NODE_COORD_SECTION
1 21.57234 23.220945
2 29.100431 32.70308
3 12.689911 23.78639
4 31.936651 32.115093
5 27.505476 31.143549
6 0.49253726 25.258066
7 2.6330087 2.7864504
8 11.759972 20.732832
9 26.883093 32.255753
10 30.205229 0.31726027
11 27.14936 2.4670787
12 2.7389474 15.186116
EOF
